Route #1: 26 53 38 10 58 72 39 9 40 12
Route #2: 7 8 35 19 54 13 57 15 5 29 45 27 52
Route #3: 14 59 11 66 65 31 25 55 18 50
Route #4: 32 44 3 24 49 63 23 56 41 43 42 64 22
Route #5: 30 48 47 36 37 20 70 60 71 69 61 21 2
Route #6: 17 51 16 33 1 73 62 28 74 6 68 75
Route #7: 4 34 46 67
Cost 753